122 5
10 10 10 10 10 

0 0 0 0 0 0 1 2 
0 0 0 0 0 0 4 3 4 6 7 
9 0 1 0 0 0 2 12 5 
9 0 7 0 0 0 4 11 10 9 8 
9 0 4 0 0 0 3 10 9 8 
6 0 7 0 0 0 3 11 9 8 
10 0 6 0 0 0 1 8 
10 0 6 0 0 0 1 13 
2 0 5 0 0 0 1 13 
6 0 7 0 0 0 1 13 
2 0 5 0 0 0 1 13 
6 0 2 0 0 0 1 13 
0 0 0 0 0 0 2 14 26 
0 0 0 0 0 0 5 15 16 17 19 24 
9 0 0 1 0 0 2 22 18 
7 0 0 7 0 0 3 22 21 70 
4 0 0 7 0 0 2 21 20 
9 0 0 6 0 0 1 20 
7 0 0 4 0 0 1 23 
6 0 0 5 0 0 1 25 
9 0 0 6 0 0 1 25 
4 0 0 9 0 0 1 25 
6 0 0 4 0 0 1 25 
5 0 0 1 0 0 1 25 
0 0 0 0 0 0 1 38 
0 0 0 0 0 0 4 27 28 30 36 
10 0 0 0 1 0 4 35 33 32 29 
6 0 0 0 3 0 3 34 33 31 
8 0 0 0 6 0 1 31 
2 0 0 0 6 0 1 32 
4 0 0 0 8 0 1 37 
10 0 0 0 4 0 1 37 
1 0 0 0 7 0 1 37 
1 0 0 0 7 0 1 37 
10 0 0 0 1 0 2 37 83 
8 0 0 0 7 0 1 37 
0 0 0 0 0 0 1 38 
0 0 0 0 0 0 5 39 51 63 75 87 
0 0 0 0 0 0 5 40 41 42 43 44 
2 0 0 0 1 0 3 48 46 45 
3 0 0 0 2 0 3 49 48 47 
1 0 0 0 1 0 2 48 45 
3 0 0 0 10 0 2 48 47 
9 0 0 0 6 0 2 45 97 
1 0 0 0 7 0 1 47 
8 0 0 0 5 0 1 47 
2 0 0 0 3 0 1 50 
2 0 0 0 5 0 1 50 
3 0 0 0 10 0 1 50 
0 0 0 0 0 0 1 99 
0 0 0 0 0 0 5 52 53 54 55 61 
7 0 0 0 1 0 3 60 58 57 
1 0 0 0 3 0 2 60 56 
4 0 0 0 3 0 2 60 56 
3 0 0 0 10 0 2 60 59 
7 0 0 0 5 0 1 59 
8 0 0 0 6 0 1 59 
5 0 0 0 5 0 2 59 77 
2 0 0 0 5 0 1 62 
5 0 0 0 8 0 1 62 
7 0 0 0 4 0 1 62 
0 0 0 0 0 0 1 99 
0 0 0 0 0 0 5 64 65 66 67 68 
6 0 0 0 1 0 2 70 69 
6 0 0 0 4 0 2 70 69 
7 0 0 0 4 0 2 70 69 
10 0 0 0 6 0 2 70 69 
10 0 0 0 7 0 2 70 69 
1 0 0 0 4 0 3 73 72 71 
5 0 0 0 6 0 2 72 71 
10 0 0 0 4 0 1 74 
1 0 0 0 6 0 1 74 
6 0 0 0 8 0 1 74 
0 0 0 0 0 0 1 99 
0 0 0 0 0 0 6 76 77 78 79 80 81 
1 1 0 0 0 0 3 84 83 82 
7 6 0 0 0 0 3 84 83 82 
5 7 0 0 0 0 2 84 82 
10 5 0 0 0 0 2 84 82 
5 3 0 0 0 0 2 83 82 
4 6 0 0 0 0 1 83 
2 2 0 0 0 0 1 85 
2 6 0 0 0 0 1 85 
1 6 0 0 0 0 1 85 
2 8 0 0 0 0 1 86 
0 0 0 0 0 0 1 99 
0 0 0 0 0 0 5 88 89 90 91 93 
2 0 1 0 0 0 4 97 96 95 94 
4 0 5 0 0 0 2 96 94 
6 0 9 0 0 0 2 95 94 
2 0 2 0 0 0 1 92 
5 0 7 0 0 0 1 94 
9 0 2 0 0 0 1 95 
9 0 6 0 0 0 1 98 
5 0 10 0 0 0 1 98 
9 0 4 0 0 0 1 98 
1 0 4 0 0 0 1 98 
0 0 0 0 0 0 1 99 
0 0 0 0 0 0 5 100 101 102 103 105 
8 0 1 0 0 0 4 109 108 107 104 
7 0 7 0 0 0 3 108 107 104 
9 0 2 0 0 0 3 108 107 106 
1 0 7 0 0 0 2 109 106 
4 0 5 0 0 0 1 106 
7 0 7 0 0 0 1 107 
2 0 4 0 0 0 1 110 
1 0 5 0 0 0 1 110 
3 0 6 0 0 0 1 110 
9 0 6 0 0 0 1 110 
0 0 0 0 0 0 1 111 
0 0 0 0 0 0 6 112 113 114 115 117 121 
5 0 1 0 0 0 3 120 119 116 
1 0 5 0 0 0 2 119 116 
1 0 6 0 0 0 2 119 116 
2 0 5 0 0 0 2 119 116 
5 0 5 0 0 0 1 118 
8 0 5 0 0 0 1 120 
10 0 6 0 0 0 1 122 
4 0 8 0 0 0 1 122 
7 0 3 0 0 0 1 122 
8 0 6 0 0 0 1 122 
0 0 0 0 0 0 0 
